NAME : gil06
COMMENT : (Gillet and Johnson)
TYPE : CVRP
DIMENSION : 6
EDGE_WEIGHT_TYPE : EUC_2D
CAPACITY : 1000
NODE_COORD_SECTION
1 0 0
2 0 10
3 0 18
4 0 30
5 0 40
6 0 50
DEMAND_SECTION
1 1000
2 6
3 72
4 93
5 28
6 1500
DEPOT_SECTION
1
6
 -1
EOF